
Gurobi 7.5.1 (linux64, Python) logging started Wed Nov 29 11:41:23 2017

Optimize a model with 3 rows, 2 columns and 6 nonzeros
Variable types: 0 continuous, 2 integer (0 binary)
Coefficient statistics:
  Matrix range     [1e+00, 3e+00]
  Objective range  [5e+00, 8e+00]
  Bounds range     [0e+00, 0e+00]
  RHS range        [3e+00, 7e+00]
Found heuristic solution: objective 13
Presolve removed 3 rows and 2 columns
Presolve time: 0.02s
Presolve: All rows and columns removed

Explored 0 nodes (0 simplex iterations) in 0.06 seconds
Thread count was 1 (of 8 available processors)

Solution count 1: 13 

Optimal solution found (tolerance 1.00e-04)
Best objective 1.300000000000e+01, best bound 1.300000000000e+01, gap 0.0000%

Gurobi 7.5.1 (linux64, Python) logging started Fri Dec  1 16:30:44 2017


Gurobi 7.5.1 (linux64, Python) logging started Fri Dec  1 16:30:57 2017


Gurobi 7.5.1 (linux64, Python) logging started Fri Dec  1 16:31:23 2017


Gurobi 7.5.1 (linux64, Python) logging started Fri Dec  1 16:31:48 2017


Gurobi 7.5.1 (linux64, Python) logging started Fri Dec  1 16:33:52 2017


Gurobi 7.5.1 (linux64, Python) logging started Fri Dec  1 16:34:09 2017


Gurobi 7.5.1 (linux64, Python) logging started Fri Dec  1 16:34:21 2017


Gurobi 7.5.1 (linux64, Python) logging started Fri Dec  1 16:34:35 2017


Gurobi 7.5.1 (linux64, Python) logging started Fri Dec  1 16:38:56 2017


Gurobi 7.5.1 (linux64, Python) logging started Fri Dec  1 16:39:05 2017


Gurobi 7.5.1 (linux64, Python) logging started Fri Dec  1 16:39:18 2017


Gurobi 7.5.1 (linux64, Python) logging started Fri Dec  1 16:46:34 2017


Gurobi 7.5.1 (linux64, Python) logging started Fri Dec  1 16:46:42 2017


Gurobi 7.5.1 (linux64, Python) logging started Fri Dec  1 16:47:10 2017


Gurobi 7.5.1 (linux64, Python) logging started Fri Dec  1 16:48:56 2017


Gurobi 7.5.1 (linux64, Python) logging started Fri Dec  1 16:49:10 2017


Gurobi 7.5.1 (linux64, Python) logging started Fri Dec  1 16:49:22 2017


Gurobi 7.5.1 (linux64, Python) logging started Fri Dec  1 16:49:30 2017


Gurobi 7.5.1 (linux64, Python) logging started Fri Dec  1 16:49:39 2017


Gurobi 7.5.1 (linux64, Python) logging started Fri Dec  1 16:50:03 2017


Gurobi 7.5.1 (linux64, Python) logging started Fri Dec  1 16:50:13 2017


Gurobi 7.5.1 (linux64, Python) logging started Fri Dec  1 17:08:34 2017


Gurobi 7.5.1 (linux64, Python) logging started Fri Dec  1 17:08:57 2017


Gurobi 7.5.1 (linux64, Python) logging started Fri Dec  1 17:09:09 2017


Gurobi 7.5.1 (linux64, Python) logging started Fri Dec  1 17:09:35 2017


Gurobi 7.5.1 (linux64, Python) logging started Fri Dec  1 17:09:52 2017


Gurobi 7.5.1 (linux64, Python) logging started Fri Dec  1 17:10:33 2017


Gurobi 7.5.1 (linux64, Python) logging started Fri Dec  1 17:10:40 2017


Gurobi 7.5.1 (linux64, Python) logging started Fri Dec  1 17:24:36 2017


Gurobi 7.5.1 (linux64, Python) logging started Fri Dec  1 17:24:54 2017


Gurobi 7.5.1 (linux64, Python) logging started Fri Dec  1 17:33:32 2017


Gurobi 7.5.1 (linux64, Python) logging started Fri Dec  1 17:33:57 2017


Gurobi 7.5.1 (linux64, Python) logging started Fri Dec  1 17:34:23 2017


Gurobi 7.5.1 (linux64, Python) logging started Fri Dec  1 17:36:07 2017


Gurobi 7.5.1 (linux64, Python) logging started Fri Dec  1 17:38:16 2017


Gurobi 7.5.1 (linux64, Python) logging started Fri Dec  1 17:39:44 2017


Gurobi 7.5.1 (linux64, Python) logging started Fri Dec  1 17:40:09 2017


Gurobi 7.5.1 (linux64, Python) logging started Fri Dec  1 17:40:56 2017


Gurobi 7.5.1 (linux64, Python) logging started Fri Dec  1 17:41:55 2017


Gurobi 7.5.1 (linux64, Python) logging started Fri Dec  1 17:43:28 2017


Gurobi 7.5.1 (linux64, Python) logging started Fri Dec  1 17:43:47 2017


Gurobi 7.5.1 (linux64, Python) logging started Fri Dec  1 17:44:13 2017


Gurobi 7.5.1 (linux64, Python) logging started Fri Dec  1 17:44:30 2017


Gurobi 7.5.1 (linux64, Python) logging started Fri Dec  1 17:44:57 2017


Gurobi 7.5.1 (linux64, Python) logging started Fri Dec  1 17:54:14 2017


Gurobi 7.5.1 (linux64, Python) logging started Fri Dec  1 17:55:34 2017


Gurobi 7.5.1 (linux64, Python) logging started Fri Dec  1 17:56:41 2017


Gurobi 7.5.1 (linux64, Python) logging started Fri Dec  1 17:56:51 2017


Gurobi 7.5.1 (linux64, Python) logging started Fri Dec  1 17:57:21 2017


Gurobi 7.5.1 (linux64, Python) logging started Tue Dec  5 17:18:00 2017


Gurobi 7.5.1 (linux64, Python) logging started Tue Dec  5 17:18:29 2017


Gurobi 7.5.1 (linux64, Python) logging started Tue Dec  5 17:18:33 2017


Gurobi 7.5.1 (linux64, Python) logging started Tue Dec  5 17:21:46 2017


Gurobi 7.5.1 (linux64, Python) logging started Tue Dec  5 17:38:23 2017


Gurobi 7.5.1 (linux64, Python) logging started Tue Dec  5 17:38:41 2017


Gurobi 7.5.1 (linux64, Python) logging started Tue Dec  5 17:40:11 2017


Gurobi 7.5.1 (linux64, Python) logging started Tue Dec  5 17:40:56 2017


Gurobi 7.5.1 (linux64, Python) logging started Tue Dec  5 18:02:13 2017


Gurobi 7.5.1 (linux64, Python) logging started Tue Dec  5 18:03:17 2017


Gurobi 7.5.1 (linux64, Python) logging started Tue Dec  5 18:14:47 2017


Gurobi 7.5.1 (linux64, Python) logging started Tue Dec  5 18:14:58 2017


Gurobi 7.5.1 (linux64, Python) logging started Tue Dec  5 18:16:19 2017


Gurobi 7.5.1 (linux64, Python) logging started Tue Dec  5 18:16:47 2017


Gurobi 7.5.1 (linux64, Python) logging started Tue Dec  5 18:18:22 2017


Gurobi 7.5.1 (linux64, Python) logging started Tue Dec  5 18:20:21 2017


Gurobi 7.5.1 (linux64, Python) logging started Tue Dec  5 18:22:18 2017


Gurobi 7.5.1 (linux64, Python) logging started Tue Dec  5 18:22:43 2017


Gurobi 7.5.1 (linux64, Python) logging started Tue Dec  5 18:22:53 2017


Gurobi 7.5.1 (linux64, Python) logging started Tue Dec  5 18:23:11 2017


Gurobi 7.5.1 (linux64, Python) logging started Tue Dec  5 18:23:34 2017


Gurobi 7.5.1 (linux64, Python) logging started Tue Dec  5 18:24:03 2017

Optimize a model with 73 rows, 36 columns and 197 nonzeros
Variable types: 0 continuous, 36 integer (36 binary)
Coefficient statistics:
  Matrix range     [1e+00, 2e+00]
  Objective range  [1e+00, 1e+00]
  Bounds range     [1e+00, 1e+00]
  RHS range        [1e+00, 1e+00]
Presolve removed 18 rows and 21 columns
Presolve time: 0.02s

Explored 0 nodes (0 simplex iterations) in 0.05 seconds
Thread count was 1 (of 8 available processors)

Solution count 0

Model is infeasible
Best objective -, best bound -, gap -

Gurobi 7.5.1 (linux64, Python) logging started Tue Dec  5 18:25:55 2017

Optimize a model with 55 rows, 36 columns and 152 nonzeros
Variable types: 0 continuous, 36 integer (36 binary)
Coefficient statistics:
  Matrix range     [1e+00, 2e+00]
  Objective range  [1e+00, 1e+00]
  Bounds range     [1e+00, 1e+00]
  RHS range        [1e+00, 1e+00]
Presolve removed 12 rows and 22 columns
Presolve time: 0.00s

Explored 0 nodes (0 simplex iterations) in 0.00 seconds
Thread count was 1 (of 8 available processors)

Solution count 0

Model is infeasible
Best objective -, best bound -, gap -

Gurobi 7.5.1 (linux64, Python) logging started Tue Dec  5 18:26:02 2017

Optimize a model with 43 rows, 36 columns and 112 nonzeros
Variable types: 0 continuous, 36 integer (36 binary)
Coefficient statistics:
  Matrix range     [1e+00, 2e+00]
  Objective range  [1e+00, 1e+00]
  Bounds range     [1e+00, 1e+00]
  RHS range        [1e+00, 1e+00]
Presolve removed 12 rows and 24 columns
Presolve time: 0.00s

Explored 0 nodes (0 simplex iterations) in 0.00 seconds
Thread count was 1 (of 8 available processors)

Solution count 0

Model is infeasible
Best objective -, best bound -, gap -

Gurobi 7.5.1 (linux64, Python) logging started Tue Dec  5 18:26:11 2017

Optimize a model with 37 rows, 36 columns and 82 nonzeros
Variable types: 0 continuous, 36 integer (36 binary)
Coefficient statistics:
  Matrix range     [1e+00, 2e+00]
  Objective range  [1e+00, 1e+00]
  Bounds range     [1e+00, 1e+00]
  RHS range        [1e+00, 1e+00]
Presolve removed 12 rows and 24 columns
Presolve time: 0.00s

Explored 0 nodes (0 simplex iterations) in 0.00 seconds
Thread count was 1 (of 8 available processors)

Solution count 0

Model is infeasible
Best objective -, best bound -, gap -

Gurobi 7.5.1 (linux64, Python) logging started Tue Dec  5 18:26:20 2017

Optimize a model with 35 rows, 36 columns and 70 nonzeros
Variable types: 0 continuous, 36 integer (36 binary)
Coefficient statistics:
  Matrix range     [1e+00, 1e+00]
  Objective range  [1e+00, 1e+00]
  Bounds range     [1e+00, 1e+00]
  RHS range        [1e+00, 1e+00]
Found heuristic solution: objective 0

Explored 0 nodes (0 simplex iterations) in 0.03 seconds
Thread count was 1 (of 8 available processors)

Solution count 1: 0 

Optimal solution found (tolerance 1.00e-04)
Best objective 0.000000000000e+00, best bound 0.000000000000e+00, gap 0.0000%

Gurobi 7.5.1 (linux64, Python) logging started Tue Dec  5 18:27:28 2017

Optimize a model with 65 rows, 36 columns and 155 nonzeros
Variable types: 0 continuous, 36 integer (36 binary)
Coefficient statistics:
  Matrix range     [1e+00, 2e+00]
  Objective range  [1e+00, 1e+00]
  Bounds range     [1e+00, 1e+00]
  RHS range        [1e+00, 1e+00]
Found heuristic solution: objective 4
Presolve removed 65 rows and 36 columns
Presolve time: 0.00s
Presolve: All rows and columns removed

Explored 0 nodes (0 simplex iterations) in 0.00 seconds
Thread count was 1 (of 8 available processors)

Solution count 1: 4 

Optimal solution found (tolerance 1.00e-04)
Best objective 4.000000000000e+00, best bound 4.000000000000e+00, gap 0.0000%

Gurobi 7.5.1 (linux64, Python) logging started Tue Dec  5 18:28:38 2017

Optimize a model with 67 rows, 36 columns and 167 nonzeros
Variable types: 0 continuous, 36 integer (36 binary)
Coefficient statistics:
  Matrix range     [1e+00, 2e+00]
  Objective range  [1e+00, 1e+00]
  Bounds range     [1e+00, 1e+00]
  RHS range        [1e+00, 1e+00]
Presolve removed 18 rows and 21 columns
Presolve time: 0.00s

Explored 0 nodes (0 simplex iterations) in 0.00 seconds
Thread count was 1 (of 8 available processors)

Solution count 0

Model is infeasible
Best objective -, best bound -, gap -

Gurobi 7.5.1 (linux64, Python) logging started Tue Dec  5 18:30:25 2017

Optimize a model with 67 rows, 36 columns and 167 nonzeros
Variable types: 0 continuous, 36 integer (36 binary)
Coefficient statistics:
  Matrix range     [1e+00, 2e+00]
  Objective range  [1e+00, 1e+00]
  Bounds range     [1e+00, 1e+00]
  RHS range        [1e+00, 1e+00]
Presolve removed 18 rows and 21 columns
Presolve time: 0.00s

Explored 0 nodes (0 simplex iterations) in 0.00 seconds
Thread count was 1 (of 8 available processors)

Solution count 0

Model is infeasible
Best objective -, best bound -, gap -

Gurobi 7.5.1 (linux64, Python) logging started Tue Dec  5 18:32:55 2017


Gurobi 7.5.1 (linux64, Python) logging started Tue Dec  5 18:33:16 2017


Gurobi 7.5.1 (linux64, Python) logging started Tue Dec  5 18:33:31 2017


Gurobi 7.5.1 (linux64, Python) logging started Tue Dec  5 18:35:01 2017


Gurobi 7.5.1 (linux64, Python) logging started Tue Dec  5 18:36:21 2017


Gurobi 7.5.1 (linux64, Python) logging started Tue Dec  5 18:36:36 2017


Gurobi 7.5.1 (linux64, Python) logging started Tue Dec  5 18:37:00 2017


Gurobi 7.5.1 (linux64, Python) logging started Tue Dec  5 18:38:08 2017


Gurobi 7.5.1 (linux64, Python) logging started Tue Dec  5 18:41:41 2017


Gurobi 7.5.1 (linux64, Python) logging started Tue Dec  5 18:43:26 2017


Gurobi 7.5.1 (linux64, Python) logging started Tue Dec  5 18:57:08 2017


Gurobi 7.5.1 (linux64, Python) logging started Tue Dec  5 18:57:49 2017


Gurobi 7.5.1 (linux64, Python) logging started Tue Dec  5 18:58:55 2017


Gurobi 7.5.1 (linux64, Python) logging started Tue Dec  5 18:59:29 2017


Gurobi 7.5.1 (linux64, Python) logging started Tue Dec  5 18:59:49 2017


Gurobi 7.5.1 (linux64, Python) logging started Tue Dec  5 19:00:23 2017


Gurobi 7.5.1 (linux64, Python) logging started Tue Dec  5 19:00:29 2017


Gurobi 7.5.1 (linux64, Python) logging started Tue Dec  5 19:02:30 2017


Gurobi 7.5.1 (linux64, Python) logging started Tue Dec  5 19:03:02 2017

Optimize a model with 27 rows, 18 columns and 66 nonzeros
Variable types: 0 continuous, 18 integer (18 binary)
Coefficient statistics:
  Matrix range     [1e+00, 2e+00]
  Objective range  [1e+00, 1e+00]
  Bounds range     [1e+00, 1e+00]
  RHS range        [1e+00, 1e+00]
Found heuristic solution: objective 4
Presolve removed 27 rows and 18 columns
Presolve time: 0.00s
Presolve: All rows and columns removed

Explored 0 nodes (0 simplex iterations) in 0.00 seconds
Thread count was 1 (of 8 available processors)

Solution count 1: 4 

Optimal solution found (tolerance 1.00e-04)
Best objective 4.000000000000e+00, best bound 4.000000000000e+00, gap 0.0000%

Gurobi 7.5.1 (linux64, Python) logging started Tue Dec  5 19:04:49 2017


Gurobi 7.5.1 (linux64, Python) logging started Tue Dec  5 19:05:27 2017

Optimize a model with 33 rows, 18 columns and 75 nonzeros
Variable types: 0 continuous, 18 integer (18 binary)
Coefficient statistics:
  Matrix range     [1e+00, 2e+00]
  Objective range  [1e+00, 1e+00]
  Bounds range     [1e+00, 1e+00]
  RHS range        [1e+00, 1e+00]
Found heuristic solution: objective 4
Presolve removed 33 rows and 18 columns
Presolve time: 0.00s
Presolve: All rows and columns removed

Explored 0 nodes (0 simplex iterations) in 0.00 seconds
Thread count was 1 (of 8 available processors)

Solution count 1: 4 

Optimal solution found (tolerance 1.00e-04)
Best objective 4.000000000000e+00, best bound 4.000000000000e+00, gap 0.0000%

Gurobi 7.5.1 (linux64, Python) logging started Tue Dec  5 19:06:50 2017

Optimize a model with 33 rows, 18 columns and 75 nonzeros
Variable types: 0 continuous, 18 integer (18 binary)
Coefficient statistics:
  Matrix range     [1e+00, 2e+00]
  Objective range  [1e+00, 1e+00]
  Bounds range     [1e+00, 1e+00]
  RHS range        [1e+00, 1e+00]
Found heuristic solution: objective 4
Presolve removed 33 rows and 18 columns
Presolve time: 0.00s
Presolve: All rows and columns removed

Explored 0 nodes (0 simplex iterations) in 0.00 seconds
Thread count was 1 (of 8 available processors)

Solution count 1: 4 

Optimal solution found (tolerance 1.00e-04)
Best objective 4.000000000000e+00, best bound 4.000000000000e+00, gap 0.0000%

Gurobi 7.5.1 (linux64, Python) logging started Tue Dec  5 19:07:55 2017

Optimize a model with 33 rows, 18 columns and 75 nonzeros
Variable types: 0 continuous, 18 integer (18 binary)
Coefficient statistics:
  Matrix range     [1e+00, 2e+00]
  Objective range  [1e+00, 1e+00]
  Bounds range     [1e+00, 1e+00]
  RHS range        [1e+00, 1e+00]
Found heuristic solution: objective 4
Presolve removed 33 rows and 18 columns
Presolve time: 0.00s
Presolve: All rows and columns removed

Explored 0 nodes (0 simplex iterations) in 0.00 seconds
Thread count was 1 (of 8 available processors)

Solution count 1: 4 

Optimal solution found (tolerance 1.00e-04)
Best objective 4.000000000000e+00, best bound 4.000000000000e+00, gap 0.0000%
